DATASET = "thpack3";
INSTANCE = "049";

WIDTH = 233;
HEIGHT = 220;
LENGTH = 587;

NO_OF_SHAPES = 8;
size = [|
  91,54,45 |
  105,77,72 |
  79,78,48 |
  109,76,59 |
  48,37,30 |
  44,37,27 |
  79,76,54 |
  116,78,20 |
|];

verticality = [|
  0,1,1 |
  1,1,1 |
  1,1,1 |
  1,1,1 |
  1,1,1 |
  1,1,1 |
  1,1,1 |
  0,0,1 |
|];

box_count = [
  13,
  15,
  10,
  12,
  13,
  9,
  17,
  16,
];
